c boolean__Z14set_or_clear_2bjj
p cnf 160 289
1 34 0
1 34 -66 0
1 35 0
1 35 -69 0
1 36 0
1 36 -72 0
1 37 0
1 37 -75 0
1 38 0
1 38 -78 0
1 39 0
1 39 -81 0
1 40 0
1 40 -84 0
1 41 0
1 41 -87 0
1 42 0
1 42 -90 0
1 43 0
1 43 -93 0
1 44 0
1 44 -96 0
1 45 0
1 45 -99 0
1 46 0
1 46 -102 0
1 47 0
1 47 -105 0
1 48 0
1 48 -108 0
1 49 0
1 49 -111 0
1 50 0
1 50 -114 0
1 51 0
1 51 -117 0
1 52 0
1 52 -120 0
1 53 0
1 53 -123 0
1 54 0
1 54 -126 0
1 55 0
1 55 -129 0
1 56 0
1 56 -132 0
1 57 0
1 57 -135 0
1 58 0
1 58 -138 0
1 59 0
1 59 -141 0
1 60 0
1 60 -144 0
1 61 0
1 61 -147 0
1 62 0
1 62 -150 0
1 63 0
1 63 -153 0
1 64 0
1 64 -156 0
1 65 0
1 65 -159 0
68 2 0
71 3 0
74 4 0
77 5 0
80 6 0
83 7 0
86 8 0
89 9 0
92 10 0
95 11 0
98 12 0
101 13 0
104 14 0
107 15 0
110 16 0
113 17 0
116 18 0
119 19 0
122 20 0
125 21 0
128 22 0
131 23 0
134 24 0
137 25 0
140 26 0
143 27 0
146 28 0
149 29 0
152 30 0
155 31 0
158 32 0
161 33 0
162 34 0
162 34 -194 0
163 35 0
163 35 -197 0
164 36 0
164 36 -200 0
165 37 0
165 37 -203 0
166 38 0
166 38 -206 0
167 39 0
167 39 -209 0
168 40 0
168 40 -212 0
169 41 0
169 41 -215 0
170 42 0
170 42 -218 0
171 43 0
171 43 -221 0
172 44 0
172 44 -224 0
173 45 0
173 45 -227 0
174 46 0
174 46 -230 0
175 47 0
175 47 -233 0
176 48 0
176 48 -236 0
177 49 0
177 49 -239 0
178 50 0
178 50 -242 0
179 51 0
179 51 -245 0
180 52 0
180 52 -248 0
181 53 0
181 53 -251 0
182 54 0
182 54 -254 0
183 55 0
183 55 -257 0
184 56 0
184 56 -260 0
185 57 0
185 57 -263 0
186 58 0
186 58 -266 0
187 59 0
187 59 -269 0
188 60 0
188 60 -272 0
189 61 0
189 61 -275 0
190 62 0
190 62 -278 0
191 63 0
191 63 -281 0
192 64 0
192 64 -284 0
193 65 0
193 65 -287 0
